proyfinal/src/viki/013/experimentInOfficeAgust.take6.output/429c1f43-ecd0-47ba-b945-d4d0bf996eca.als.dat
{'cnf.clauses': '118081',
 'cnf.totvars': '69608',
 'conflict literals': '4',
 'conflicts': '4',
 'decisions': '551',
 'memused.mb': '17.36',
 'outcome': 'UNSAT',
 'propagations': '19508',
 'restarts': '1',
 'solver.msecs': 33,
 'task.msecs': 88}
