proyfinal/src/viki/013/experimentInOfficeAgust.take6.output/429c1f43-ecd0-47ba-b945-d4d0bf996eca.als.out
Reading from standard input... Use '--help' for help.
============================[ Problem Statistics ]=============================
|                                                                             |
|  Number of variables:         69608                                         |
|  Number of clauses:          118081                                         |
|  Parse time:                   0.03 s                                       |
|                                                                             |
============================[ Search Statistics ]==============================
| Conflicts |          ORIGINAL         |          LEARNT          | Progress |
|           |    Vars  Clauses Literals |    Limit  Clauses Lit/Cl |          |
===============================================================================
===============================================================================
restarts              : 1
conflicts             : 4              (119 /sec)
decisions             : 551            (0.00 % random) (16356 /sec)
propagations          : 19508          (579079 /sec)
conflict literals     : 4              (0.00 % deleted)
Memory used           : 17.36 MB
CPU time              : 0.033688 s

UNSATISFIABLE
